c Sudoku solution
p cnf 729 0
137 0
228 0
247 0
285 0
291 0
348 0
352 0
394 0
517 0
523 0
545 0
576 0
621 0
632 0
644 0
688 0
699 0
592 0
711 0
331 0
753 0
765 0
155 0
798 0
178 0
838 0
418 0
849 0
933 0
435 0
616 0
675 0
663 0
657 0
143 0
161 0
196 0
954 0
968 0
867 0
264 0
558 0
569 0
429 0
534 0
581 0
259 0
366 0
236 0
325 0
739 0
462 0
971 0
989 0
851 0
441 0
456 0
379 0
387 0
273 0
182 0
124 0
212 0
313 0
119 0
915 0
814 0
895 0
997 0
727 0
872 0
774 0
883 0
786 0
742 0
946 0
826 0
922 0
477 0
484 0
493 0
